&CONTROL
   calculation      = 'scf'
   tstress          = .true.
   tprnfor          = .true.
   pseudo_dir       = '/Users/muon/Documents/materials/alchemist/pp/efficiency'
/
&SYSTEM
   ibrav            = 0
   ecutwfc          = 30.0
   ecutrho          = 240.0
   ntyp             = 3
   nat              = 20
/
&ELECTRONS
   conv_thr         = 1e-07
   mixing_beta      = 0.5
   diagonalization  = 'david'
/
&IONS
/
&CELL
/

ATOMIC_SPECIES
K 39.0983 K.pbesol-spn-kjpaw_psl.1.0.0.UPF
Pb 207.2 Pb.pbesol-dn-kjpaw_psl.0.2.2.UPF
I 126.90447 I.pbesol-n-kjpaw_psl.0.2.UPF

K_POINTS automatic
8 8 8  0 0 0

CELL_PARAMETERS angstrom
4.75272664000000 -0.00000000000000 0.00000000000000
-0.00000000000000 10.60788672000000 0.00000000000000
0.00000000000000 0.00000000000000 17.07067393000000

ATOMIC_POSITIONS angstrom
K 1.1881816600 9.8934021632 3.0041813566 
K 3.5645449800 0.7144845568 14.0664925734 
K 3.5645449800 6.0184279168 11.5395183216 
K 1.1881816600 4.5894588032 5.5311556084 
Pb 1.1881816600 7.1146021652 16.0878389259 
Pb 3.5645449800 3.4932845548 0.9828350041 
Pb 3.5645449800 8.7972279148 7.5525019609 
Pb 1.1881816600 1.8106588052 9.5181719691 
I 1.1881816600 5.4769330639 1.9714515040 
I 3.5645449800 5.1309536561 15.0992224260 
I 3.5645449800 10.4348970161 10.5067884690 
I 1.1881816600 0.1729897039 6.5638854610 
I 1.1881816600 6.9622570001 8.8127383184 
I 3.5645449800 3.6456297199 8.2579356116 
I 3.5645449800 8.9495730799 0.2774013534 
I 1.1881816600 1.6583136401 16.7932725766 
I 1.1881816600 8.4934770190 13.3156289089 
I 3.5645449800 2.1144097010 3.7550450211 
I 3.5645449800 7.4183530610 4.7802919439 
I 1.1881816600 3.1895336590 12.2903819861 

